l=2995;
a=5;
setup_costs=[|14,14,14,14,14,
|14,14,14,14,14,
|14,14,14,14,14,
|14,14,14,14,14,
|14,14,14,14,14,
|0,0,0,0,0|];
setup_times=[|15,15,15,15,15,
|15,15,15,15,15,
|15,15,15,15,15,
|15,15,15,15,15,
|15,15,15,15,15,
|0,0,0,0,0|];
m=2;
min_cap=[0,0];
max_cap=[20,20];

initState=[3,5];
s=1;
m_a_s = [|699,
|1624|];
m_a_e = [|1992,
|2604|];
n=10;
eligible_machine = [{1,2},
{1},
{1,2},
{2,1},
{1,2},
{1,2},
{2,1},
{1,2},
{1},
{1}];
earliest_start=[21,10,34,0,47,0,24,4,30,5];
latest_end=[59,66,150,153,86,62,123,93,84,113];
min_time=[25,36,99,78,21,46,82,56,44,100];
max_time=[61,48,99,94,64,53,90,58,85,100];
size=[5,10,10,20,11,9,3,1,2,20];
attribute=[3,5,1,3,3,5,5,2,5,4];

upper_bound_integer_objective=619500;
mult_factor_total_runtime=420;
mult_factor_finished_toolate=24780;
mult_factor_total_setuptimes=0;
mult_factor_total_setupcosts=885;
running_time_bound=587;
min_duration=21;
max_duration=100;
max_setup_time=15;
max_setup_cost=14;
